NB_POSTES = 10;

NIVEAU_HIERARCHIQUE_P = [|1, 
|1, 
|2, 
|3, 
|3, 
|2, 
|3, 
|1, 
|1, 
|2|];

COMP_CLEES_P = [|1, 1, 1, 1, 1, 1, 0, 1, 0, 1, 
|1, 0, 0, 1, 1, 0, 0, 1, 1, 1, 
|0, 0, 0, 1, 0, 1, 0, 0, 1, 1, 
|0, 0, 1, 0, 1, 1, 1, 0, 0, 0, 
|0, 1, 1, 1, 0, 0, 0, 1, 0, 0, 
|0, 1, 1, 1, 1, 1, 1, 1, 1, 1, 
|0, 0, 1, 1, 0, 1, 1, 0, 0, 0, 
|1, 1, 0, 0, 1, 0, 1, 0, 1, 1, 
|1, 1, 1, 1, 0, 0, 1, 1, 1, 0, 
|0, 1, 1, 1, 0, 0, 1, 0, 0, 1|];

AUTRES_COMP_P = [|0, 0, 0, 1, 1, 0, 1, 1, 0, 0, 
|0, 1, 1, 1, 0, 0, 0, 0, 0, 1, 
|0, 0, 0, 0, 0, 1, 1, 0, 1, 0, 
|0, 0, 0, 0, 1, 1, 0, 1, 1, 0, 
|1, 0, 0, 0, 1, 1, 1, 0, 0, 0, 
|0, 0, 1, 0, 1, 1, 0, 0, 0, 1, 
|1, 0, 0, 0, 0, 0, 1, 1, 0, 0, 
|0, 0, 0, 0, 0, 0, 0, 0, 0, 1, 
|0, 0, 0, 0, 1, 0, 0, 1, 1, 0, 
|1, 0, 0, 0, 0, 1, 1, 0, 0, 1|];

NIVEAU_EDUCATION_P = [|2, 
|1, 
|6, 
|6, 
|1, 
|1, 
|2, 
|7, 
|1, 
|1|];

TITRE_PROFESSIONNEL_P = [|5, 
|1, 
|2, 
|0, 
|4, 
|3, 
|1, 
|2, 
|2, 
|5|];

NIVEAU_FR_P = [|3, 
|3, 
|1, 
|4, 
|2, 
|2, 
|4, 
|2, 
|4, 
|2|];

NIVEAU_EN_P = [|2, 
|2, 
|3, 
|4, 
|4, 
|1, 
|3, 
|3, 
|2, 
|1|];

AUTRES_LANGUES_P = [|0, 0, 0, 0, 0, 0, 0, 1, 1, 0, 
|0, 0, 1, 0, 0, 0, 0, 0, 0, 0, 
|0, 0, 1, 0, 0, 0, 0, 0, 0, 0, 
|0, 0, 0, 0, 0, 0, 0, 0, 0, 0, 
|0, 1, 0, 0, 0, 0, 1, 0, 0, 0, 
|0, 0, 0, 0, 0, 0, 0, 0, 0, 0, 
|0, 1, 0, 0, 0, 0, 0, 0, 0, 1, 
|0, 0, 0, 0, 0, 0, 0, 0, 0, 1, 
|0, 0, 0, 0, 1, 0, 0, 1, 0, 0, 
|0, 0, 0, 0, 0, 0, 0, 0, 0, 0|];